GLPSOL--GLPK LP/MIP Solver 5.0
Parameter(s) specified in the command line:
 --lp ../modeles/10_369.lp --log 10_369.log
Reading problem data from '../modeles/10_369.lp'...
3731 rows, 7400 columns, 25880 non-zeros
3690 integer variables, all of which are binary
11147 lines were read
GLPK Integer Optimizer 5.0
3731 rows, 7400 columns, 25880 non-zeros
3690 integer variables, all of which are binary
Preprocessing...
3660 constraint coefficient(s) were reduced
3731 rows, 7390 columns, 25870 non-zeros
3690 integer variables, all of which are binary
Scaling...
 A: min|aij| =  2.938e-05  max|aij| =  4.000e+00  ratio =  1.362e+05
GM: min|aij| =  5.206e-02  max|aij| =  1.921e+01  ratio =  3.690e+02
EQ: min|aij| =  2.710e-03  max|aij| =  1.000e+00  ratio =  3.690e+02
2N: min|aij| =  1.880e-03  max|aij| =  1.775e+00  ratio =  9.439e+02
Constructing initial basis...
Size of triangular part is 3731
Solving LP relaxation...
GLPK Simplex Optimizer 5.0
3731 rows, 7390 columns, 25870 non-zeros
      0: obj =   2.000000000e+01 inf =   4.950e+01 (21)
    209: obj =   4.998567861e-01 inf =   0.000e+00 (0)
*   643: obj =  -3.161865713e+00 inf =   2.835e-15 (0)
OPTIMAL LP SOLUTION FOUND
Integer optimization begins...
Long-step dual simplex will be used
+   643: mip =     not found yet >=              -inf        (1; 0)
+   706: >>>>>  -3.161865713e+00 >=  -3.161865713e+00 < 0.1% (62; 0)
+   706: mip =  -3.161865713e+00 >=     tree is empty   0.0% (0; 123)
INTEGER OPTIMAL SOLUTION FOUND
Time used:   0.5 secs
Memory used: 10.7 Mb (11247980 bytes)
